# ----------------- INITIALIZATION -----------------
units           metal
dimension       3
boundary        p p p
atom_style      charge

# ----------------- ATOM DEFINITION -----------------
read_data       data.na3po4_cubic

# Masses: type 1=Na, 2=O, 3=P
mass            1 22.98977
mass            2 15.9994
mass            3 30.97376

# ----------------- MACE POTENTIAL -----------------
pair_style      mliap unified ../lamps1/mace-omat-0-medium.model-mliap_lammps.pt
pair_coeff      * * Na O P

# ----------------- MINIMIZATION -----------------
velocity        all set 0.0 0.0 0.0
minimize        1.0e-4 1.0e-6 1000 10000
reset_timestep  0

# ----------------- NPT EQUILIBRATION (600 K) -----------------
# NPT lets the cubic box relax its volume at 600 K before production
velocity        all create 600.0 42137 mom yes rot yes dist gaussian
fix             1 all npt temp 600.0 600.0 0.2 iso 0.0 0.0 2.0
thermo          500
thermo_style    custom step temp etotal pe ke press vol lx ly lz
dump            eq all custom 500 dump.equil_600K id type q x y z
timestep        0.002
run             25000           # 50 ps NPT equilibration
unfix           1
undump          eq
reset_timestep  0

# ----------------- NVT PRODUCTION (600 K) -----------------
group           Na type 1

# MSD of Na ions — output every 100 steps (0.2 ps)
# columns: time(ps)  msd_x  msd_y  msd_z  msd_total
compute         msd_Na Na msd com yes
fix             msd_out Na ave/time 100 1 100 c_msd_Na[1] c_msd_Na[2] c_msd_Na[3] c_msd_Na[4] &
                file msd_Na_600K.dat title1 "# step msd_x msd_y msd_z msd_total (Ang^2)"

fix             2 all nvt temp 600.0 600.0 0.2
thermo          500
thermo_style    custom step temp etotal pe ke press vol
dump            prod all custom 2000 dump.prod_600K id type q x y z
timestep        0.002
run             250000          # 500 ps NVT production
